Geometry = GenFormat {
720  C
C
1   1     6.68010  -0.85150 -10.17320
2   1     5.58440  -1.22940 -10.78030
3   1     4.94100  -0.15280 -11.15480
4   1     5.64040   0.88790 -10.78180
5   1     6.71730   0.45720 -10.17640
6   1    12.08890  -1.36780   0.89000
7   1    12.15650  -0.96880  -0.35440
8   1    12.18780   0.34000  -0.35510
9   1    12.14260   0.74690   0.88780
10   1    12.08290  -0.30830   1.65890
11   1     4.31160 -10.92950  -3.28500
12   1     5.05590 -10.29760  -4.15620
13   1     6.15160  -9.91950  -3.54810
14   1     6.08680 -10.32110  -2.30440
15   1     4.94820 -10.94640  -2.14110
16   1    -5.97710  -5.49080  -9.10870
17   1    -4.83510  -5.52100  -9.74850
18   1    -4.19080  -6.59580  -9.36830
19   1    -4.93600  -7.22810  -8.49820
20   1    -6.04110  -6.54650  -8.33870
21   1    -4.55730   7.43260  -8.53570
22   1    -3.84740   6.75980  -9.40490
23   1    -4.54660   5.71730  -9.77710
24   1    -5.68800   5.74880  -9.13660
25   1    -5.69700   6.81000  -8.37130
26   1     6.61010   9.98430  -2.35340
27   1     6.65530   9.57480  -3.59600
28   1     5.57690  10.00470  -4.20130
29   1     4.86760  10.68210  -3.33540
30   1     5.50560  10.66850  -2.19250
31   1    -6.67950   0.85100  10.17110
32   1    -6.71270  -0.45780  10.17410
33   1    -5.63810  -0.88890  10.78380
34   1    -4.94040   0.15480  11.15430
35   1    -5.58460   1.22970  10.77910
36   1   -12.08300   0.30700  -1.65850
37   1   -12.14260  -0.74780  -0.88500
38   1   -12.18840  -0.33800   0.35690
39   1   -12.15550   0.96960   0.35160
40   1   -12.09130   1.36880  -0.89280
41   1    -5.50540 -10.66810   2.19190
42   1    -4.86860 -10.68200   3.33580
43   1    -5.57920 -10.00630   4.20340
44   1    -6.65390  -9.57410   3.59350
45   1    -6.60990  -9.98410   2.35180
46   1     5.69550  -6.80700   8.37030
47   1     5.68960  -5.74780   9.13840
48   1     4.54680  -5.71780   9.77620
49   1     3.84810  -6.75960   9.40050
50   1     4.55860  -7.43510   8.53400
51   1     6.03910   6.54360   8.33880
52   1     4.93430   7.22770   8.49970
53   1     4.19160   6.59700   9.37320
54   1     4.83660   5.52240   9.75100
55   1     5.97900   5.49020   9.11260
56   1    -4.94850  10.94510   2.14010
57   1    -6.08580  10.31760   2.30530
58   1    -6.15100   9.91920   3.54950
59   1    -5.05550  10.29910   4.15530
60   1    -4.31130  10.93240   3.28400
61   1     7.01240  -2.91970  -9.36090
62   1     7.07500  -4.93560  -8.19330
63   1     6.96360  -6.83640  -6.80510
64   1     6.68290  -8.54950  -5.24840
65   1    11.61870  -3.01890  -1.09870
66   1    10.63740  -5.01200  -1.80280
67   1     9.37890  -6.88800  -2.47250
68   1     7.89020  -8.57480  -3.08310
69   1    11.73470  -1.01890  -2.56010
70   1    10.87040  -1.01220  -4.72540
71   1     9.72300  -0.98740  -6.78330
72   1     8.33710  -0.94530  -8.65580
73   1     8.63980  -3.08100  -7.60490
74   1     9.96240  -3.13560  -5.59270
75   1    10.97870  -3.13110  -3.40960
76   1     8.64340  -5.10220  -6.29440
77   1     9.84610  -5.12820  -4.13730
78   1     8.41260  -6.95650  -4.77480
79   1    11.13950  -3.75580  -2.13940
80   1    10.01030  -5.70300  -2.83400
81   1     8.62810  -7.49920  -3.47550
82   1     6.99550  -9.04730  -4.00890
83   1    11.25650  -1.74790  -3.60630
84   1    10.24180  -1.73590  -5.73230
85   1     8.96710  -1.69910  -7.71300
86   1     7.43000  -1.61440  -9.43780
87   1     7.63780  -3.68070  -8.42050
88   1     9.13460  -3.79890  -6.52440
89   1    10.31260  -3.82440  -4.41140
90   1     7.61540  -5.65150  -7.13020
91   1     9.02030  -5.75070  -5.09840
92   1     7.41540  -7.47370  -5.65040
93   1    11.91670  -1.71170  -1.39110
94   1     5.82170  -3.32840 -10.01850
95   1     5.86670  -5.35160  -8.85960
96   1     5.75540  -7.25170  -7.47190
97   1     5.49300  -8.95850  -5.90670
98   1    -2.40300  -7.84550  -8.83310
99   1    -0.49410  -8.84330  -7.94320
100   1     1.44360  -9.61940  -6.84970
101   1     3.33650 -10.14400  -5.59460
102   1    -2.28590  -5.84480 -10.29600
103   1    -0.26020  -4.84490 -10.86630
104   1     1.78850  -3.71950 -11.16240
105   1     3.78220  -2.51450 -11.17000
106   1     3.87900  -4.72000 -10.23270
107   1     1.80900  -5.94260 -10.09190
108   1    -0.29870  -7.01340  -9.63110
109   1     3.83980  -6.75630  -8.94470
110   1     1.69240  -7.93470  -8.63560
111   1     3.65240  -8.59590  -7.40050
112   1    -1.04520  -7.95040  -8.86080
113   1     0.89410  -8.84140  -7.86260
114   1     2.82160  -9.49920  -6.67830
115   1     4.64660  -9.85620  -5.30600
116   1    -0.92800  -5.94330 -10.32850
117   1     1.12610  -4.87470 -10.76230
118   1     3.16040  -3.69900 -10.91760
119   1     5.08010  -2.42410 -10.73580
120   1     5.20800  -4.51730  -9.76140
121   1     3.18830  -5.84670  -9.80550
122   1     1.08420  -7.00150  -9.50250
123   1     5.17040  -6.49330  -8.47940
124   1     3.07390  -7.79830  -8.37890
125   1     4.98620  -8.30990  -6.99120
126   1    -2.93000  -6.82210  -9.58040
127   1     3.08510  -1.34690 -11.57880
128   1     1.08000  -2.53540 -11.57750
129   1    -0.96880  -3.66080 -11.28210
130   1    -2.98530  -4.67890 -10.70420
131   1    -4.89770   3.59280 -10.41640
132   1    -5.09320   1.28500 -10.67710
133   1    -5.15390  -1.07030 -10.67150
134   1    -5.07780  -3.38350 -10.39940
135   1    -2.74040   4.77750 -10.72790
136   1    -0.78070   3.65210 -11.29870
137   1     1.20790   2.42170 -11.58780
138   1     3.14890   1.13130 -11.58360
139   1     1.08430  -0.05560 -11.86980
140   1    -0.94740   1.23160 -11.74880
141   1    -2.96980   2.45280 -11.27890
142   1    -1.01120  -1.23780 -11.74360
143   1    -3.09520   0.05240 -11.43930
144   1    -3.09370  -2.35050 -11.26770
145   1    -4.33360   2.43830 -10.86850
146   1    -4.45910   0.08940 -10.99740
147   1    -4.45490  -2.26200 -10.85740
148   1    -4.31080  -4.52080 -10.38850
149   1    -2.16930   3.62680 -11.18070
150   1    -0.18240   2.43730 -11.61370
151   1     1.79880   1.17120 -11.75820
152   1     3.70260  -0.12240 -11.54240
153   1     1.73450  -1.31760 -11.75310
154   1    -0.30400  -0.02070 -11.85090
155   1    -2.34560   1.24320 -11.55310
156   1    -0.30900  -2.47990 -11.60310
157   1    -2.40810  -1.17590 -11.54740
158   1    -2.35420  -3.56300 -11.16380
159   1    -4.07240   4.68900 -10.41140
160   1     3.90590   2.26260 -11.17970
161   1     1.97640   3.56990 -11.17750
162   1    -0.01210   4.80030 -10.88840
163   1    -1.98330   5.90810 -10.32290
164   1     3.85400   9.93170  -5.64110
165   1     1.93610   9.49920  -6.89420
166   1    -0.03930   8.81910  -7.98450
167   1    -1.99710   7.91830  -8.87040
168   1     5.94650   8.63530  -5.94780
169   1     6.12160   6.91050  -7.50440
170   1     6.13490   5.00050  -8.88350
171   1     5.98480   2.97740 -10.03250
172   1     4.11590   4.46540 -10.25320
173   1     4.18260   6.50650  -8.97540
174   1     4.08920   8.36050  -7.44010
175   1     2.11110   5.79390 -10.11850
176   1     2.09740   7.79550  -8.67210
177   1     0.06120   6.97400  -9.66370
178   1     3.30630   9.30890  -6.72190
179   1     1.34710   8.74580  -7.90350
180   1    -0.63580   7.95210  -8.89810
181   1    -2.57670   6.92120  -9.61350
182   1     5.40670   8.00860  -7.02930
183   1     5.49780   6.17820  -8.50840
184   1     5.43300   4.19740  -9.78110
185   1     5.19820   2.10810 -10.74440
186   1     3.34570   3.47900 -10.93310
187   1     3.48350   5.62810  -9.83170
188   1     3.47010   7.58910  -8.41510
189   1     1.37390   4.75930 -10.78390
190   1     1.44130   6.89100  -9.53460
191   1    -0.62230   5.93440 -10.35630
192   1     5.14810   9.57790  -5.35060
193   1     8.37390   0.47430  -8.65910
194   1     9.76040   0.45360  -6.78650
195   1    10.90780   0.42850  -4.72860
196   1    11.77150   0.40060  -2.56280
197   1     8.32210   8.14290  -3.12300
198   1     9.72110   6.38460  -2.50410
199   1    10.88130   4.44960  -1.82530
200   1    11.75830   2.41190  -1.11150
201   1     7.11410   8.16880  -5.28790
202   1     7.30650   6.43570  -6.83590
203   1     7.31990   4.52540  -8.21490
204   1     7.15330   2.51120  -9.37340
205   1     8.78680   2.59630  -7.61820
206   1     8.89450   4.62050  -6.31730
207   1     8.75960   6.49120  -4.80690
208   1    10.11060   2.59210  -5.60570
209   1    10.09730   4.59460  -4.16000
210   1    11.12600   2.54450  -3.42230
211   1     9.00280   7.02870  -3.51040
212   1    10.29070   5.16690  -2.85970
213   1    11.31800   3.16740  -2.15580
214   1    11.98820   1.08970  -1.39630
215   1     7.79020   7.05490  -5.68470
216   1     7.89620   5.21800  -7.15570
217   1     7.81720   3.24290  -8.43670
218   1     7.50290   1.18620  -9.44480
219   1     9.04210   1.19890  -7.71970
220   1     9.31820   3.29240  -6.54080
221   1     9.30490   5.25390  -5.12440
222   1    10.31730   1.17910  -5.73890
223   1    10.49610   3.26680  -4.42710
224   1    11.33160   1.14830  -3.61280
225   1     7.45190   8.65700  -4.05160
226   1    11.54680  -3.45130   0.25180
227   1    10.56450  -5.45150  -0.43220
228   1     9.30600  -7.32750  -1.10220
229   1     7.81850  -9.00890  -1.73290
230   1     6.16620  -8.02790   6.54260
231   1     6.40340  -8.99080   4.43270
232   1     6.48580  -9.72710   2.19510
233   1     6.40920 -10.21020  -0.08290
234   1     7.49140  -6.05410   7.24740
235   1     9.05200  -5.04310   5.84260
236   1    10.39220  -3.90310   4.27560
237   1    11.46050  -2.67730   2.60550
238   1    10.69240  -4.86520   1.99100
239   1     9.47070  -6.10570   3.65560
240   1     7.95890  -7.19000   5.18680
241   1     9.55620  -6.87720   1.31110
242   1     8.15140  -8.07200   2.95350
243   1     8.12640  -8.69060   0.62420
244   1     6.90220  -8.12050   5.40010
245   1     7.06520  -8.97300   3.20960
246   1     7.06650  -9.58950   0.93570
247   1     6.85440  -9.90450  -1.34410
248   1     8.23220  -6.13850   6.10790
249   1     9.69210  -5.05730   4.60860
250   1    10.90670  -3.86360   2.98100
251   1    11.77500  -2.56690   1.27530
252   1    10.99320  -4.64090   0.61720
253   1     9.95420  -5.99030   2.33440
254   1     8.57780  -7.16080   3.94370
255   1     9.86280  -6.59340  -0.06100
256   1     8.66130  -7.91690   1.64590
257   1     8.48190  -8.38460  -0.72030
258   1     6.53440  -7.02480   7.40340
259   1    11.58290   2.09620   2.59320
260   1    10.57940   3.38340   4.25790
261   1     9.30000   4.59830   5.81980
262   1     7.79350   5.69490   7.22000
263   1     6.92620   9.86510  -0.13140
264   1     6.97740   9.39050   2.14950
265   1     6.85760   8.66990   4.39060
266   1     6.57150   7.73030   6.50490
267   1     8.27300   8.58650  -1.77480
268   1     9.67030   6.83470  -1.13610
269   1    10.83090   4.89910  -0.45690
270   1    11.70870   2.85540   0.23600
271   1    10.92850   4.31830   1.96900
272   1     9.89750   6.38270   1.27930
273   1     8.56290   8.26390   0.58440
274   1     9.77230   5.62800   3.62760
275   1     8.55580   7.65590   2.91640
276   1     8.31880   6.79470   5.15410
277   1     7.55020   9.21730   0.89110
278   1     7.51730   8.61260   3.16780
279   1     7.31120   7.77960   5.36220
280   1     6.88730   6.71470   7.37060
281   1     8.90210   7.93420  -0.75850
282   1    10.18890   6.07730  -0.09150
283   1    11.21730   4.07280   0.59650
284   1    11.89120   1.96400   1.26270
285   1    11.09090   3.31140   2.96340
286   1    10.24920   5.48140   2.30740
287   1     9.05740   7.46850   1.61000
288   1     9.93970   4.57380   4.58560
289   1     8.93450   6.72850   3.91120
290   1     8.53760   5.73550   6.08030
291   1     7.35540   9.53190  -1.39190
292   1    11.45200  -1.52710   3.43810
293   1    10.38350  -2.73540   5.12030
294   1     9.04300  -3.87540   6.68740
295   1     7.48200  -4.90360   8.08010
296   1     6.31640   3.35110   9.70920
297   1     6.41200   1.03740   9.97000
298   1     6.35130  -1.31790   9.97580
299   1     6.13700  -3.62520   9.72580
300   1     7.72570   4.55030   8.05780
301   1     9.23130   3.43660   6.67000
302   1    10.51070   2.22180   5.10830
303   1    11.51550   0.95200   3.43190
304   1    10.66020  -0.26210   5.31580
305   1     9.50220   1.00720   7.00400
306   1     8.05140   2.21580   8.50080
307   1     9.43870  -1.46190   7.01020
308   1     8.09750  -0.18770   8.64770
309   1     7.92750  -2.58660   8.51230
310   1     6.98570   2.19440   9.44540
311   1     7.00540  -0.15730   9.57670
312   1     6.86470  -2.50560   9.45660
313   1     6.51900  -4.75400   9.04600
314   1     8.40090   3.39860   7.78850
315   1     9.80180   2.22260   6.30440
316   1    10.95370   0.97430   4.67220
317   1    11.75910  -0.29580   2.91570
318   1    10.89000  -1.51450   4.67820
319   1     9.91440  -0.24000   6.48730
320   1     8.60090   1.00790   8.09090
321   1     9.67550  -2.69410   6.31610
322   1     8.53830  -1.41070   8.09660
323   1     8.21560  -3.78930   7.80560
324   1     6.75690   4.45540   9.02370
325   1     2.53010 -10.83040  -4.64900
326   1     0.62490 -10.31700  -5.89030
327   1    -1.31360  -9.54070  -6.98410
328   1    -3.20960  -8.53240  -7.88810
329   1    -5.72700 -10.60660  -0.04290
330   1    -5.76110 -10.14330  -2.32770
331   1    -5.64190  -9.42330  -4.56910
332   1    -5.37410  -8.47320  -6.68060
333   1    -3.68790 -11.42430   1.10740
334   1    -1.68300 -11.77700  -0.02730
335   1     0.37420 -11.83280  -1.17440
336   1     2.40520 -11.58890  -2.29110
337   1     0.42380 -11.34320  -3.62250
338   1    -1.68990 -11.46190  -2.47470
339   1    -3.77000 -11.22900  -1.28370
340   1    -1.56520 -10.70670  -4.82430
341   1    -3.72120 -10.64830  -3.62060
342   1    -3.52750  -9.76100  -5.85170
343   1    -5.10390 -10.73070  -1.24790
344   1    -5.05740 -10.13530  -3.52730
345   1    -4.86650  -9.29390  -5.71960
346   1    -4.52400  -8.17830  -7.71560
347   1    -3.05700 -11.55090  -0.09330
348   1    -1.01240 -11.75530  -1.24540
349   1     1.04800 -11.66220  -2.38280
350   1     3.05390 -11.21270  -3.43990
351   1     1.17370 -10.90120  -4.75010
352   1    -0.95990 -11.22970  -3.66090
353   1    -3.07170 -11.17250  -2.48250
354   1    -0.76370 -10.25190  -5.92300
355   1    -2.94970 -10.43280  -4.78320
356   1    -2.69350  -9.35300  -6.93190
357   1    -4.98970 -10.99580   1.04670
358   1     3.09580 -11.60350  -1.05110
359   1     1.07610 -11.84740   0.08430
360   1    -0.98210 -11.79180   1.23170
361   1    -2.99800 -11.43850   2.34810
362   1     2.76740  -8.64870   7.92990
363   1     0.82120  -9.56320   7.02920
364   1    -1.15420 -10.24420   5.93940
365   1    -3.08430 -10.66520   4.70290
366   1     4.93160  -8.70660   6.72020
367   1     5.15020  -9.67910   4.61340
368   1     5.23260 -10.41530   2.37680
369   1     5.17430 -10.88770   0.09410
370   1     3.18830 -11.40220   1.33790
371   1     3.16930 -10.80850   3.67130
372   1     3.02130  -9.90150   5.89870
373   1     1.09830 -11.52160   2.53030
374   1     1.01280 -10.75050   4.87510
375   1    -1.00690 -11.28980   3.67680
376   1     2.20940  -9.44610   6.97660
377   1     0.23590 -10.25020   5.97150
378   1    -1.73300 -10.80510   4.80220
379   1    -3.62700 -11.02550   3.49540
380   1     4.38240  -9.50460   5.76290
381   1     4.53000 -10.36550   3.57550
382   1     4.54620 -10.97360   1.29960
383   1     4.41830 -11.24270  -0.99380
384   1     2.45950 -11.69250   0.14930
385   1     2.49310 -11.30420   2.53580
386   1     2.40950 -10.54840   4.83260
387   1     0.40680 -11.78590   1.30170
388   1     0.38050 -11.24710   3.71440
389   1    -1.64660 -11.58190   2.43860
390   1     4.09840  -8.36460   7.75410
391   1    -6.31640  -3.35120  -9.70680
392   1    -6.41180  -1.03690  -9.96890
393   1    -6.35120   1.31920  -9.97460
394   1    -6.13690   3.62570  -9.72450
395   1   -11.45170   1.52660  -3.43740
396   1   -10.38280   2.73510  -5.12010
397   1    -9.04280   3.87560  -6.68740
398   1    -7.48200   4.90440  -8.08030
399   1   -11.51510  -0.95260  -3.43150
400   1   -10.51060  -2.22220  -5.10800
401   1    -9.23130  -3.43700  -6.66970
402   1    -7.72580  -4.55080  -8.05730
403   1    -8.05110  -2.21550  -8.50030
404   1    -9.50190  -1.00780  -7.00370
405   1   -10.65970   0.26100  -5.31530
406   1    -8.09700   0.18840  -8.64740
407   1    -9.43800   1.46140  -7.00980
408   1    -7.92730   2.58730  -8.51210
409   1   -10.88930   1.51400  -4.67780
410   1    -9.67480   2.69400  -6.31600
411   1    -8.21550   3.79000  -7.80570
412   1    -6.51850   4.75520  -9.04510
413   1   -10.95350  -0.97480  -4.67170
414   1    -9.80180  -2.22300  -6.30400
415   1    -8.40080  -3.39870  -7.78820
416   1    -6.75600  -4.45580  -9.02240
417   1    -6.98520  -2.19400  -9.44470
418   1    -8.60050  -1.00740  -8.09050
419   1    -9.91390   0.23980  -6.48690
420   1    -7.00480   0.15810  -9.57640
421   1    -8.53780   1.41140  -8.09630
422   1    -6.86440   2.50650  -9.45630
423   1   -11.75870   0.29480  -2.91520
424   1    -7.79440  -5.69560  -7.21970
425   1    -9.30030  -4.59890  -5.81950
426   1   -10.57950  -3.38380  -4.25760
427   1   -11.58280  -2.09650  -2.59300
428   1    -8.27070  -8.58630   1.77400
429   1    -9.67040  -6.83400   1.13650
430   1   -10.83130  -4.89940   0.45770
431   1   -11.70940  -2.85480  -0.23510
432   1    -6.92580  -9.86500   0.12950
433   1    -6.97750  -9.39060  -2.15080
434   1    -6.85820  -8.67130  -4.39100
435   1    -6.57270  -7.73190  -6.50570
436   1    -8.31910  -6.79650  -5.15380
437   1    -8.55640  -7.65650  -2.91620
438   1    -8.56270  -8.26350  -0.58500
439   1    -9.77270  -5.62830  -3.62740
440   1    -9.89800  -6.38300  -1.27900
441   1   -10.92870  -4.31820  -1.96870
442   1    -8.90150  -7.93330   0.75830
443   1   -10.18910  -6.07710   0.09140
444   1   -11.21750  -4.07250  -0.59610
445   1   -11.89110  -1.96430  -1.26270
446   1    -7.55020  -9.21700  -0.89240
447   1    -7.51800  -8.61300  -3.16880
448   1    -7.31180  -7.78120  -5.36280
449   1    -6.88910  -6.71580  -7.37100
450   1    -8.53820  -5.73640  -6.07970
451   1    -8.93550  -6.72910  -3.91100
452   1    -9.05810  -7.46820  -1.61020
453   1    -9.93990  -4.57420  -4.58530
454   1   -10.24950  -5.48120  -2.30690
455   1   -11.09100  -3.31160  -2.96320
456   1    -7.35410  -9.53210   1.38950
457   1    -2.76870   8.64860  -7.92880
458   1    -0.82110   9.56250  -7.02870
459   1     1.15440  10.24260  -5.93850
460   1     3.08370  10.66380  -4.69960
461   1    -3.09600  11.60300   1.05240
462   1    -1.07530  11.84770  -0.08350
463   1     0.98190  11.79260  -1.23070
464   1     2.99760  11.44010  -2.34590
465   1    -5.17550  10.88610  -0.09500
466   1    -5.23220  10.41480  -2.37640
467   1    -5.15040   9.67880  -4.61420
468   1    -4.93250   8.70650  -6.72110
469   1    -3.02130   9.90130  -5.89790
470   1    -3.16930  10.80790  -3.67120
471   1    -3.18790  11.40150  -1.33760
472   1    -1.01280  10.74990  -4.87470
473   1    -1.09850  11.52170  -2.52940
474   1     1.00660  11.28920  -3.67630
475   1    -2.45930  11.69180  -0.14860
476   1    -0.40690  11.78590  -1.30140
477   1     1.64610  11.58200  -2.43810
478   1     3.62620  11.02590  -3.49280
479   1    -4.54550  10.97280  -1.29950
480   1    -4.53000  10.36480  -3.57580
481   1    -4.38270   9.50430  -5.76390
482   1    -4.09940   8.36370  -7.75500
483   1    -2.20940   9.44580  -6.97630
484   1    -2.40930  10.54800  -4.83240
485   1    -2.49310  11.30370  -2.53570
486   1    -0.23580  10.24930  -5.97100
487   1    -0.38090  11.24650  -3.71380
488   1     1.73270  10.80360  -4.80130
489   1    -4.41860  11.24110   0.99270
490   1    -7.49150   6.05500  -7.24810
491   1    -9.05180   5.04330  -5.84270
492   1   -10.39170   3.90290  -4.27530
493   1   -11.46050   2.67730  -2.60490
494   1    -7.81950   9.00810   1.73220
495   1    -9.30710   7.32800   1.10280
496   1   -10.56580   5.45220   0.43300
497   1   -11.54820   3.45260  -0.25030
498   1    -6.40980  10.20800   0.08230
499   1    -6.48590   9.72670  -2.19590
500   1    -6.40390   8.99130  -4.43260
501   1    -6.16720   8.02870  -6.54280
502   1    -7.95950   7.19000  -5.18720
503   1    -8.15180   8.07260  -2.95350
504   1    -8.12710   8.69010  -0.62540
505   1    -9.47070   6.10610  -3.65550
506   1    -9.55730   6.87750  -1.31070
507   1   -10.69270   4.86520  -1.99080
508   1    -8.48250   8.38440   0.71920
509   1    -9.86390   6.59360   0.06120
510   1   -10.99400   4.64140  -0.61710
511   1   -11.77580   2.56820  -1.27420
512   1    -7.06690   9.58860  -0.93680
513   1    -7.06570   8.97300  -3.21040
514   1    -6.90270   8.12100  -5.40020
515   1    -6.53490   7.02670  -7.40390
516   1    -8.23220   6.13890  -6.10850
517   1    -8.57800   7.16110  -3.94400
518   1    -8.66270   7.91650  -1.64690
519   1    -9.69180   5.05740  -4.60850
520   1    -9.95450   5.99000  -2.33440
521   1   -10.90640   3.86340  -2.98070
522   1    -6.85390   9.90300   1.34410
523   1     5.72760  10.60680   0.04180
524   1     5.76120  10.14300   2.32750
525   1     5.64150   9.42240   4.56810
526   1     5.37340   8.47170   6.67970
527   1    -2.53100  10.83080   4.65070
528   1    -0.62520  10.31740   5.88990
529   1     1.31350   9.54100   6.98360
530   1     3.20930   8.53250   7.88890
531   1    -2.40400  11.58860   2.29210
532   1    -0.37390  11.83250   1.17530
533   1     1.68400  11.77710   0.02790
534   1     3.68840  11.42490  -1.10590
535   1     3.77060  11.22930   1.28360
536   1     1.69000  11.46180   2.47520
537   1    -0.42390  11.34360   3.62270
538   1     3.72110  10.64810   3.62010
539   1     1.56510  10.70680   4.82400
540   1     3.52730   9.76040   5.85110
541   1    -1.17420  10.90180   4.74990
542   1     0.76350  10.25210   5.92260
543   1     2.69350   9.35280   6.93160
544   1     4.52330   8.17780   7.71540
545   1    -1.04770  11.66250   2.38310
546   1     1.01280  11.75550   1.24550
547   1     3.05750  11.55160   0.09380
548   1     4.99020  10.99650  -1.04740
549   1     5.10460  10.73070   1.24720
550   1     3.07190  11.17270   2.48210
551   1     0.95970  11.23000   3.66090
552   1     5.05720  10.13500   3.52660
553   1     2.94950  10.43260   4.78270
554   1     4.86600   9.29280   5.71870
555   1    -3.05380  11.21310   3.44050
556   1    -8.33570   0.94540   8.65420
557   1    -9.72260   0.98730   6.78210
558   1   -10.87100   1.01180   4.72450
559   1   -11.73600   1.01820   2.55970
560   1    -7.89140   8.57480   3.08260
561   1    -9.37920   6.88820   2.47340
562   1   -10.63830   5.01260   1.80360
563   1   -11.61970   3.01950   1.09980
564   1    -6.68430   8.54980   5.24840
565   1    -6.96490   6.83630   6.80480
566   1    -7.07590   4.93630   8.19310
567   1    -7.01300   2.92060   9.35970
568   1    -8.64010   3.08130   7.60390
569   1    -8.64420   5.10240   6.29500
570   1    -8.41370   6.95650   4.77530
571   1    -9.96340   3.13570   5.59160
572   1    -9.84750   5.12820   4.13710
573   1   -10.98080   3.13060   3.40870
574   1    -8.62890   7.49960   3.47610
575   1   -10.01150   5.70360   2.83420
576   1   -11.14100   3.75660   2.13950
577   1   -11.91760   1.71200   1.38950
578   1    -7.41660   7.47410   5.65050
579   1    -7.61640   5.65200   7.13030
580   1    -7.63860   3.68140   8.41970
581   1    -7.42900   1.61520   9.43650
582   1    -8.96650   1.69910   7.71170
583   1    -9.13580   3.79880   6.52350
584   1    -9.02200   5.75030   5.09870
585   1   -10.24210   1.73570   5.73130
586   1   -10.31410   3.82390   4.41020
587   1   -11.25790   1.74760   3.60550
588   1    -6.99620   9.04760   4.00890
589   1    -8.37190  -0.47410   8.65750
590   1    -9.75940  -0.45370   6.78550
591   1   -10.90780  -0.42910   4.72790
592   1   -11.77220  -0.40130   2.56320
593   1    -8.31970  -8.14310   3.12250
594   1    -9.71960  -6.38450   2.50460
595   1   -10.88110  -4.44910   1.82580
596   1   -11.75860  -2.41200   1.11260
597   1    -7.11330  -8.16980   5.28820
598   1    -7.30500  -6.43710   6.83660
599   1    -7.31800  -4.52650   8.21510
600   1    -7.15150  -2.51100   9.37220
601   1    -8.78520  -2.59660   7.61720
602   1    -8.89310  -4.62100   6.31780
603   1    -8.75840  -6.49160   4.80680
604   1   -10.10980  -2.59260   5.60540
605   1   -10.09650  -4.59510   4.16000
606   1   -11.12550  -2.54600   3.42260
607   1    -9.00140  -7.02910   3.51010
608   1   -10.29010  -5.16720   2.85960
609   1   -11.31840  -3.16770   2.15600
610   1   -11.98920  -1.08980   1.39620
611   1    -7.78930  -7.05550   5.68490
612   1    -7.89470  -5.21880   7.15580
613   1    -7.81540  -3.24330   8.43580
614   1    -7.50040  -1.18580   9.44280
615   1    -9.04050  -1.19900   7.71840
616   1    -9.31710  -3.29280   6.54020
617   1    -9.30380  -5.25430   5.12450
618   1   -10.31660  -1.17950   5.73820
619   1   -10.49550  -3.26740   4.42730
620   1   -11.33190  -1.14950   3.61230
621   1    -7.45060  -8.65700   4.05140
622   1    -5.98330  -2.97700  10.03200
623   1    -6.13280  -5.00100   8.88340
624   1    -6.11970  -6.91180   7.50470
625   1    -5.94610  -8.63700   5.94810
626   1     1.99630  -7.91680   8.87090
627   1     0.03950  -8.81990   7.98530
628   1    -1.93570  -9.50100   6.89560
629   1    -3.85430  -9.93290   5.64400
630   1     1.98390  -5.90630  10.32370
631   1     0.01230  -4.80050  10.88860
632   1    -1.97580  -3.56960  11.17880
633   1    -3.90480  -2.26330  11.18010
634   1    -4.11500  -4.46560  10.25360
635   1    -2.11090  -5.79400  10.11930
636   1    -0.06140  -6.97420   9.66420
637   1    -4.18110  -6.50770   8.97580
638   1    -2.09720  -7.79680   8.67310
639   1    -4.08880  -8.36240   7.44110
640   1     0.63560  -7.95220   8.89870
641   1    -1.34680  -8.74720   7.90470
642   1    -3.30580  -9.31080   6.72390
643   1    -5.14780  -9.58060   5.35160
644   1     0.62260  -5.93450  10.35640
645   1    -1.37370  -4.75940  10.78450
646   1    -3.34470  -3.47960  10.93350
647   1    -5.19630  -2.10830  10.74500
648   1    -5.43180  -4.19720   9.78100
649   1    -3.48340  -5.62850   9.83210
650   1    -1.44180  -6.89180   9.53540
651   1    -5.49650  -6.17900   8.50880
652   1    -3.46990  -7.59070   8.41550
653   1    -5.40610  -8.01040   7.02980
654   1     2.57710  -6.91900   9.61310
655   1    -3.14850  -1.13120  11.58370
656   1    -1.20720  -2.42150  11.58840
657   1     0.78090  -3.65230  11.29890
658   1     2.74240  -4.77630  10.72670
659   1     5.07660   3.38580  10.40030
660   1     5.15380   1.07110  10.67190
661   1     5.09300  -1.28440  10.67780
662   1     4.89780  -3.59140  10.41750
663   1     2.98440   4.68150  10.70590
664   1     0.96900   3.66120  11.28140
665   1    -1.08020   2.53570  11.57620
666   1    -3.08500   1.34830  11.57860
667   1    -1.08390   0.05580  11.86940
668   1     1.01120   1.23810  11.74300
669   1     3.09390   2.35030  11.26760
670   1     0.94810  -1.23210  11.74900
671   1     3.09560  -0.05210  11.43950
672   1     2.97030  -2.45340  11.27940
673   1     4.45540   2.26330  10.85760
674   1     4.45960  -0.08860  10.99780
675   1     4.33420  -2.43740  10.86950
676   1     4.07440  -4.68880  10.41100
677   1     2.35490   3.56370  11.16380
678   1     0.30890   2.48030  11.60210
679   1    -1.73440   1.31770  11.75240
680   1    -3.70190   0.12340  11.54190
681   1    -1.79830  -1.17100  11.75830
682   1     0.30450   0.02040  11.85050
683   1     2.40800   1.17570  11.54760
684   1     0.18290  -2.43740  11.61410
685   1     2.34630  -1.24340  11.55300
686   1     2.16960  -3.62690  11.18080
687   1     4.30990   4.52330  10.39020
688   1    -3.78320   2.51460  11.16890
689   1    -1.78880   3.72020  11.16050
690   1     0.26030   4.84550  10.86570
691   1     2.28510   5.84710  10.29630
692   1    -3.33880  10.14340   5.59440
693   1    -1.44410   9.62000   6.84920
694   1     0.49380   8.84410   7.94270
695   1     2.40260   7.84540   8.83370
696   1    -5.49440   8.95890   5.90650
697   1    -5.75660   7.25240   7.47140
698   1    -5.86760   5.35240   8.85910
699   1    -5.82240   3.32960  10.01730
700   1    -3.87960   4.72050  10.23170
701   1    -3.84120   6.75650   8.94440
702   1    -3.65300   8.59610   7.40030
703   1    -1.80910   5.94350  10.09110
704   1    -1.69270   7.93530   8.63520
705   1     0.29850   7.01450   9.63070
706   1    -2.82220   9.49950   6.67790
707   1    -0.89450   8.84210   7.86210
708   1     1.04490   7.95160   8.86040
709   1     2.93090   6.82440   9.58160
710   1    -4.98710   8.31050   6.99090
711   1    -5.17160   6.49410   8.47890
712   1    -5.20870   4.51820   9.76060
713   1    -5.08180   2.42490  10.73420
714   1    -3.16100   3.69910  10.91630
715   1    -3.18820   5.84720   9.80490
716   1    -3.07420   7.79850   8.37910
717   1    -1.12600   4.87540  10.76130
718   1    -1.08400   7.00210   9.50200
719   1     0.92770   5.94450  10.32840
720   1    -4.64880   9.85650   5.30540
}
Driver = {}
Hamiltonian = DFTB {
  SCC = Yes
  SCCTolerance = 1E-10
  MaxSCCIterations = 100
  MaxAngularMomentum = {
    C = "p"
  }
  Filling = Fermi {
    Temperature [Kelvin] = 1.0e0
  }
  SlaterKosterFiles = {
    C-C = "/Users/j2c/Development/DFTB+/mio-0-1/C-C.skf"
  }
  Charge = 0.0000000000000000
  PolynomialRepulsive = {}
  OldRepulsiveSum = No
  OrbitalResolvedSCC = No
  OldSKInterpolation = No
  ReadInitialCharges = No
  InitialCharges = {}
  Mixer = Broyden {
    MixingParameter = 0.20000000000000001
    CachedIterations = -1
    InverseJacobiWeight = 1.0000000000000000E-002
    MinimalWeight = 1.0000000000000000
    MaximalWeight = 100000.00000000000
    WeightFactor = 1.0000000000000000E-002
  }
  ElectricField = {}
  DampXH = No
  SpinPolarisation = {}
  Eigensolver = DivideAndConquer {}
  Dispersion = {}
  ThirdOrder = No
  ThirdOrderFull = No
}
ParserOptions = {
  ParserVersion = 4
  WriteHSDInput = Yes
  WriteXMLInput = No
  StopAfterParsing = No
  IgnoreUnprocessedNodes = No
}
Analysis = {
  ProjectStates = {}
}
Options = {
  CalculateForces = No
  ConvergentForcesOnly = Yes
  WriteEigenvectors = No
  WriteAutotestTag = No
  WriteDetailedXML = No
  WriteResultsTag = No
  WriteDetailedOut = Yes
  WriteBandOut = Yes