Geometry = GenFormat {
12 C
C H
1 1    0.00000        1.40272        0.00000
2 2    0.00000        2.49029        0.00000
3 1   -1.21479        0.70136        0.00000
4 2   -2.15666        1.24515        0.00000
5 1   -1.21479       -0.70136        0.00000
6 2   -2.15666       -1.24515        0.00000
7 1    0.00000       -1.40272        0.00000
8 2    0.00000       -2.49029        0.00000
9 1    1.21479       -0.70136        0.00000
10 2    2.15666       -1.24515        0.00000
11 1    1.21479        0.70136        0.00000
12 2    2.15666        1.24515        0.00000
}
Driver = {}
Hamiltonian = DFTB {
  SCC = Yes
  SCCTolerance = 1E-10
  MaxSCCIterations = 100
  MaxAngularMomentum = {
    C = "p"
    H = "s"
  }
  Filling = Fermi {
    Temperature [Kelvin] = 1.0e0
  }
  SlaterKosterFiles = {
    C-C = "/Users/j2c/Development/DFTB+/mio-0-1/C-C.skf"
    C-H = "/Users/j2c/Development/DFTB+/mio-0-1/C-H.skf"
    H-C = "/Users/j2c/Development/DFTB+/mio-0-1/H-C.skf"
    H-H = "/Users/j2c/Development/DFTB+/mio-0-1/H-H.skf"
  }
  Charge = 0.0000000000000000
  PolynomialRepulsive = {}
  OldRepulsiveSum = No
  OrbitalResolvedSCC = No
  OldSKInterpolation = No
  ReadInitialCharges = No
  InitialCharges = {}
  Mixer = Broyden {
    MixingParameter = 0.20000000000000001
    CachedIterations = -1
    InverseJacobiWeight = 1.0000000000000000E-002
    MinimalWeight = 1.0000000000000000
    MaximalWeight = 100000.00000000000
    WeightFactor = 1.0000000000000000E-002
  }
  ElectricField = {}
  DampXH = No
  SpinPolarisation = {}
  Eigensolver = DivideAndConquer {}
  Dispersion = {}
  ThirdOrder = No
  ThirdOrderFull = No
}
ParserOptions = {
  ParserVersion = 4
  WriteHSDInput = Yes
  WriteXMLInput = No
  StopAfterParsing = No
  IgnoreUnprocessedNodes = No
}
Analysis = {
  ProjectStates = {}
}
Options = {
  CalculateForces = No
  ConvergentForcesOnly = Yes
  WriteEigenvectors = No
  WriteAutotestTag = No
  WriteDetailedXML = No
  WriteResultsTag = No
  WriteDetailedOut = Yes
  WriteBandOut = Yes
  AtomResolvedEnergies = No
  RestartFrequency = 20
  RandomSeed = 0
  WriteHS = No
  WriteRealHS = No
  MinimiseMemoryUsage = No
  ShowFoldedCoords = No
}
