Geometry = GenFormat {
180 C
C
1 1     5.94060   0.59650  -0.41930
2 1     5.93570  -0.73530  -0.16200
3 1     5.66630  -1.38200  -1.32280
4 1     5.50750  -0.45190  -2.29460
5 1     5.67810   0.77110  -1.73860
6 1     2.83010   5.12760   1.23450
7 1     3.83470   4.56120   0.52130
8 1     3.57290   4.73550  -0.79620
9 1     2.39920   5.40580  -0.89720
10 1     1.94210   5.65200   0.35430
11 1     3.37000  -0.17130   4.94290
12 1     4.38070   0.08380   4.07510
13 1     4.38280   1.41520   3.81810
14 1     3.37330   1.97720   4.52830
15 1     2.75020   0.99860   5.22730
16 1     2.37120  -5.36250   1.18010
17 1     3.54640  -4.70310   1.03000
18 1     3.81640  -4.05840   2.19080
19 1     2.80660  -4.31830   3.05820
20 1     1.91470  -5.12670   2.43360
21 1     1.21740  -3.27530  -4.86340
22 1     2.49140  -3.19300  -4.40510
23 1     2.65450  -4.12300  -3.43440
24 1     1.47620  -4.77650  -3.28620
25 1     0.59020  -4.25790  -4.16960
26 1     1.49520   3.20730  -4.82930
27 1     2.66790   2.53390  -4.72220
28 1     2.50350   1.31170  -5.28280
29 1     1.22700   1.23160  -5.73180
30 1     0.60550   2.40280  -5.45710
31 1    -5.93570  -0.59440   0.42270
32 1    -5.67490  -0.76940   1.74010
33 1    -5.50630   0.45710   2.29310
34 1    -5.66940   1.38700   1.32150
35 1    -5.93590   0.73720   0.16170
36 1    -1.94110  -5.64480  -0.34860
37 1    -2.40080  -5.40690   0.90320
38 1    -3.57220  -4.73310   0.79580
39 1    -3.83120  -4.55720  -0.52420
40 1    -2.82610  -5.12390  -1.23370
41 1    -0.60830  -2.40370   5.45100
42 1    -1.22900  -1.22950   5.72670
43 1    -2.50360  -1.31650   5.27460
44 1    -2.66790  -2.54160   4.72150
45 1    -1.49840  -3.21580   4.83180
46 1    -0.59120   4.25700   4.16640
47 1    -1.47730   4.78080   3.28550
48 1    -2.65030   4.11680   3.43640
49 1    -2.48640   3.19020   4.41060
50 1    -1.21440   3.27630   4.86590
51 1    -1.91330   5.12020  -2.42570
52 1    -2.80240   4.31240  -3.05500
53 1    -3.81120   4.05680  -2.18500
54 1    -3.54830   4.70870  -1.02640
55 1    -2.37370   5.36730  -1.17590
56 1    -2.75150  -1.00080  -5.22350
57 1    -3.37950  -1.97970  -4.52910
58 1    -4.38810  -1.41580  -3.82380
59 1    -4.38430  -0.08480  -4.08200
60 1    -3.37290   0.17320  -4.94870
61 1     5.57710   1.08350   1.83600
62 1     4.43850   3.23390   2.34680
63 1     5.28420   2.79100   0.04890
64 1     4.93750   1.97320   2.71950
65 1     5.74720   1.54940   0.51980
66 1     4.65680   3.60500   1.00830
67 1     5.57430  -0.34890   2.11230
68 1     4.42640  -2.15060   3.39110
69 1     5.26880  -2.59390   1.09270
70 1     4.93250  -0.84460   3.26330
71 1     5.74000  -1.27030   1.06310
72 1     4.64190  -2.99270   2.28460
73 1     4.98110  -3.29150  -0.15470
74 1     3.34730  -4.77230  -1.30340
75 1     4.49930  -2.97310  -2.57300
76 1     4.07280  -4.36590  -0.16980
77 1     5.17630  -2.64090  -1.38770
78 1     3.61360  -4.06120  -2.48620
79 1     4.32560  -1.97330  -3.62020
80 1     2.69660  -1.01610  -5.23840
81 1     4.33340   0.46670  -4.09490
82 1     3.26990  -2.09560  -4.54410
83 1     4.83730  -0.67480  -3.44870
84 1     3.27860   0.24260  -4.99800
85 1     5.00110   2.97520  -1.36880
86 1     3.37090   3.93170  -2.98480
87 1     4.51340   1.78380  -3.49510
88 1     4.09730   3.97270  -1.78120
89 1     5.19190   1.91430  -2.27160
90 1     3.63030   2.82940  -3.81860
91 1     3.35530   3.83830   3.11290
92 1     1.50250   3.36900   4.70820
93 1     1.20710   5.07450   2.91980
94 1     2.80700   3.16710   4.22090
95 1     2.52450   4.80090   2.51020
96 1     0.75140   4.35030   4.03430
97 1     0.26130   5.69300  -1.79430
98 1    -0.22800   4.50100  -3.92490
99 1     2.11060   4.65470  -3.09810
100 1    -0.61880   5.24320  -2.79750
101 1     1.62070   5.39090  -2.00420
102 1     1.15220   4.25230  -4.04230
103 1     0.25520   5.63800   1.96900
104 1    -2.08430   5.48330   1.14000
105 1    -0.23060   5.95560  -0.44780
106 1    -1.12660   5.45600   2.16810
107 1     0.64870   5.90900   0.64650
108 1    -1.59020   5.76060  -0.14830
109 1     3.34110  -2.42890   4.32250
110 1     1.18430  -3.63500   4.60310
111 1     1.49470  -1.38840   5.62330
112 1     2.50300  -3.54070   4.12210
113 1     2.79910  -1.38800   5.09960
114 1     0.73410  -2.54270   5.36710
115 1     0.82690  -0.12770   5.92340
116 1    -1.32370   1.10600   5.72560
117 1     0.83250   2.31330   5.45590
118 1    -0.57910  -0.06470   5.95260
119 1     1.48580   1.09320   5.69450
120 1    -0.57150   2.27530   5.50530
121 1     2.08400  -5.47980  -1.13790
122 1    -0.25530  -5.63370  -1.96610
123 1     0.23070  -5.95420   0.45400
124 1     1.12480  -5.45150  -2.16760
125 1     1.58950  -5.75730   0.14900
126 1    -0.64750  -5.90410  -0.64310
127 1    -0.26090  -5.69470   1.80130
128 1    -2.11070  -4.65830   3.10220
129 1     0.22940  -4.50830   3.93000
130 1    -1.62110  -5.39420   2.00760
131 1     0.62070  -5.25020   2.80300
132 1    -1.14910  -4.25880   4.04770
133 1     1.32480  -1.10600  -5.72510
134 1    -0.82670   0.12640  -5.92430
135 1    -0.83270  -2.31670  -5.45360
136 1     0.57880   0.06580  -5.95410
137 1     0.57250  -2.27350  -5.50360
138 1    -1.48540  -1.09440  -5.69230
139 1    -1.20610  -5.07110  -2.91790
140 1    -3.35630  -3.83580  -3.11560
141 1    -1.50400  -3.37190  -4.70700
142 1    -2.52500  -4.79620  -2.51020
143 1    -0.75120  -4.34940  -4.03600
144 1    -2.80860  -3.16690  -4.22480
145 1    -1.18410   3.63010  -4.59950
146 1    -3.34400   2.42360  -4.32360
147 1    -1.49450   1.38780  -5.62530
148 1    -2.50400   3.53340  -4.11940
149 1    -0.73450   2.54190  -5.36800
150 1    -2.79830   1.38680  -5.10360
151 1    -5.28210  -2.78640  -0.04890
152 1    -4.43990  -3.22970  -2.34990
153 1    -5.58160  -1.08230  -1.83860
154 1    -4.65460  -3.60040  -1.01090
155 1    -5.74710  -1.54440  -0.52180
156 1    -4.94350  -1.96950  -2.72300
157 1    -4.99750  -2.97540   1.36780
158 1    -3.37150  -3.93370   2.98690
159 1    -4.51240  -1.78380   3.49440
160 1    -4.09640  -3.97220   1.78180
161 1    -5.18950  -1.91320   2.27080
162 1    -3.63200  -2.83060   3.81940
163 1    -4.33190  -0.46660   4.09240
164 1    -2.69540   1.01560   5.23780
165 1    -4.32420   1.97410   3.62040
166 1    -3.27600  -0.24160   4.99570
167 1    -4.83560   0.67700   3.44730
168 1    -3.27010   2.09710   4.54330
169 1    -4.49720   2.97340   2.57230
170 1    -3.34830   4.77430   1.30130
171 1    -4.98450   3.29150   0.15260
172 1    -3.60960   4.06190   2.48420
173 1    -5.17700   2.64390   1.38570
174 1    -4.07750   4.36590   0.16870
175 1    -5.26910   2.59410  -1.09490
176 1    -4.42920   2.14530  -3.39250
177 1    -5.57870   0.34880  -2.11590
178 1    -4.63860   2.99100  -2.28840
179 1    -5.74200   1.26840  -1.06660
180 1    -4.93810   0.84050  -3.26730
}
Driver = {}
Hamiltonian = DFTB {
  SCC = Yes
  SCCTolerance = 1E-10
  MaxSCCIterations = 100
  MaxAngularMomentum = {
    C = "p"
  }
  Filling = Fermi {
    Temperature [Kelvin] = 1.0e0
  }
  SlaterKosterFiles = {
    C-C = "/Users/j2c/Development/DFTB+/mio-0-1/C-C.skf"
  }
  Charge = 0.0000000000000000
  PolynomialRepulsive = {}
  OldRepulsiveSum = No
  OrbitalResolvedSCC = No
  OldSKInterpolation = No
  ReadInitialCharges = No
  InitialCharges = {}
  Mixer = Broyden {
    MixingParameter = 0.20000000000000001
    CachedIterations = -1
    InverseJacobiWeight = 1.0000000000000000E-002
    MinimalWeight = 1.0000000000000000
    MaximalWeight = 100000.00000000000
    WeightFactor = 1.0000000000000000E-002
  }
  ElectricField = {}
  DampXH = No
  SpinPolarisation = {}
  Eigensolver = DivideAndConquer {}
  Dispersion = {}
  ThirdOrder = No
  ThirdOrderFull = No
}
ParserOptions = {
  ParserVersion = 4
  WriteHSDInput = Yes
  WriteXMLInput = No
  StopAfterParsing = No
  IgnoreUnprocessedNodes = No
}
Analysis = {
  ProjectStates = {}
}
Options = {
  CalculateForces = No
  ConvergentForcesOnly = Yes
  WriteEigenvectors = No
  WriteAutotestTag = No
  WriteDetailedXML = No
  WriteResultsTag = No
  WriteDetailedOut = Yes
  WriteBandOut = Yes
  AtomResolvedEnergies = No
  RestartFrequency = 20
  RandomSeed = 0
  WriteHS = No
  WriteRealHS = No
  MinimiseMemoryUsage = No
  ShowFoldedCoords = No
}
